382 5
10 10 10 10 10 

0 0 0 0 0 0 3 2 14 66 
0 0 0 0 0 0 4 3 4 5 8 
6 1 0 0 0 0 4 12 11 9 7 
3 6 0 0 0 0 3 12 11 6 
5 10 0 0 0 0 1 6 
3 9 0 0 0 0 2 10 9 
4 7 0 0 0 0 1 10 
9 7 0 0 0 0 1 9 
6 10 0 0 0 0 2 13 303 
10 9 0 0 0 0 1 13 
8 9 0 0 0 0 1 13 
7 7 0 0 0 0 1 13 
0 0 0 0 0 0 3 118 160 172 
0 0 0 0 0 0 3 15 17 18 
10 6 6 8 2 3 3 20 19 16 
7 3 5 4 10 3 6 29 25 24 23 22 21 
2 8 9 9 7 7 3 25 21 19 
4 9 7 6 7 7 2 21 19 
9 10 7 8 10 7 4 29 28 23 22 
9 9 8 7 7 10 3 29 22 21 
8 10 6 8 5 8 4 33 31 28 27 
9 9 8 6 10 8 3 31 30 26 
9 10 10 10 8 10 3 33 31 27 
7 10 10 3 8 6 4 37 35 33 31 
1 10 6 5 8 9 3 33 32 30 
10 5 8 4 8 8 3 35 33 32 
1 9 6 10 7 8 2 35 30 
8 3 5 7 9 10 2 32 30 
9 5 7 10 7 8 2 33 30 
6 6 7 7 9 10 3 37 36 34 
7 6 7 7 5 9 1 32 
6 9 8 6 9 9 2 38 34 
8 8 6 10 9 9 2 40 36 
4 8 6 7 7 9 3 41 40 39 
7 8 10 9 9 10 3 41 40 39 
6 7 6 6 8 10 1 38 
4 5 6 6 3 4 3 44 41 40 
10 8 7 8 4 8 3 41 39 375 
4 10 5 10 9 7 4 47 45 44 43 
7 10 9 10 6 8 4 47 45 43 42 
10 8 6 7 5 6 3 47 45 42 
10 8 10 5 7 9 2 49 46 
3 9 8 9 5 5 2 49 46 
10 7 7 9 10 8 2 49 46 
3 4 9 10 6 7 1 46 
9 2 6 8 10 7 5 64 63 52 51 48 
8 5 7 10 9 3 4 64 63 52 48 
1 8 8 10 8 7 3 60 53 50 
1 6 6 7 10 7 3 63 60 50 
8 9 5 7 10 7 7 62 59 58 57 56 55 54 
5 10 10 9 5 10 5 60 59 58 55 54 
8 10 8 4 8 7 4 61 57 56 55 
5 5 8 10 8 8 2 61 54 
2 7 9 3 7 6 1 65 
5 8 8 10 7 4 1 65 
1 10 10 5 10 7 1 65 
2 4 9 8 7 6 1 65 
8 7 9 5 7 8 1 65 
8 9 10 10 8 10 1 65 
4 6 9 8 6 10 1 65 
5 9 10 7 6 8 1 65 
7 10 7 8 10 9 1 65 
3 6 6 6 8 3 1 65 
7 7 5 9 7 8 1 65 
0 0 0 0 0 0 1 382 
0 0 0 0 0 0 3 67 69 70 
10 5 3 2 3 7 3 76 72 68 
5 7 6 3 4 6 5 81 79 75 74 73 
7 7 9 6 5 4 2 74 71 
7 10 7 5 5 6 3 79 71 272 
9 4 8 5 10 7 4 81 80 75 73 
4 7 6 9 10 8 3 81 74 73 
9 8 5 5 9 7 4 90 83 82 78 
3 6 6 8 9 6 3 84 80 77 
1 8 6 8 9 10 2 82 77 
1 6 10 5 10 8 4 90 88 87 82 
9 8 7 10 10 5 4 90 87 86 83 
8 6 7 5 6 7 4 87 86 85 84 
2 10 10 10 6 10 4 90 86 85 83 
9 10 10 10 10 10 4 90 88 86 85 
10 8 6 8 5 6 2 90 83 
4 10 8 7 10 7 2 86 85 
10 10 8 6 10 4 2 93 88 
5 5 10 5 10 10 2 93 88 
9 6 10 9 4 10 2 93 89 
2 10 10 7 10 10 3 93 92 91 
5 10 10 8 10 6 3 93 92 91 
4 6 10 9 6 6 1 89 
10 6 10 9 4 9 2 92 91 
6 9 6 10 4 3 2 93 92 
2 10 6 10 5 9 4 99 98 96 94 
9 8 9 7 10 9 3 99 96 95 
5 4 5 10 9 7 3 99 98 96 
9 7 10 8 10 10 2 102 97 
9 6 7 7 9 7 6 116 104 103 102 101 100 
7 8 4 5 7 7 1 97 
7 6 4 6 8 8 6 116 115 104 103 101 100 
4 7 10 8 7 6 5 104 103 102 101 100 
7 5 4 10 7 10 5 116 115 103 101 100 
5 10 10 9 7 6 8 114 112 111 110 109 108 106 105 
6 8 10 10 7 9 6 112 111 110 109 107 106 
10 6 10 9 7 10 5 115 114 108 107 106 
2 5 8 5 10 10 4 113 112 111 110 
5 9 3 8 9 10 3 109 108 106 
7 7 6 7 4 5 2 113 107 
7 7 10 3 5 7 1 117 
9 8 8 10 5 5 1 117 
4 7 3 6 7 6 1 117 
10 7 7 10 8 7 1 117 
8 10 7 6 9 10 1 117 
2 8 7 10 8 5 1 117 
3 8 4 6 10 7 1 117 
1 8 10 7 4 9 1 117 
1 9 7 10 8 10 1 117 
2 5 8 10 8 6 1 117 
7 10 10 9 8 8 1 117 
0 0 0 0 0 0 1 382 
0 0 0 0 0 0 6 119 122 124 126 129 371 
4 0 3 4 3 3 4 132 127 123 120 
10 0 7 7 4 8 2 137 121 
3 0 5 5 4 4 8 158 144 138 136 134 133 128 125 
10 0 8 8 9 10 5 146 144 136 134 125 
10 0 7 10 9 3 9 158 147 144 143 142 135 134 133 131 
8 0 6 10 10 7 5 147 143 138 130 127 
10 0 9 5 4 4 6 147 145 143 142 139 130 
1 0 8 6 10 9 6 146 145 143 138 135 131 
6 0 6 10 10 10 4 142 137 136 134 
4 0 5 10 10 7 5 151 146 145 143 135 
7 0 10 8 7 7 4 157 156 144 140 
6 0 10 10 10 10 3 157 151 135 
1 0 6 7 7 2 3 157 156 136 
2 0 7 3 4 8 3 151 146 143 
4 0 4 10 7 10 2 145 140 
8 0 7 6 10 5 3 157 156 141 
9 0 7 10 5 10 2 156 140 
10 0 9 6 4 8 2 151 140 
6 0 4 7 6 9 2 149 144 
1 0 5 7 7 9 2 151 141 
4 0 10 3 10 9 2 156 141 
2 0 8 10 4 8 1 141 
7 0 7 8 4 10 3 154 150 148 
10 0 5 8 8 5 4 156 154 153 151 
9 0 10 10 10 7 3 153 152 149 
9 0 10 10 10 10 2 151 148 
8 0 4 5 10 7 4 157 155 153 152 
7 0 10 10 5 9 1 148 
6 0 10 8 10 4 1 149 
9 0 7 8 6 10 2 155 153 
2 0 10 6 8 3 2 156 154 
8 0 10 10 7 9 1 152 
4 0 7 10 10 8 1 152 
4 0 10 10 8 7 1 159 
9 0 10 10 9 9 1 159 
9 0 7 8 5 5 1 159 
7 0 8 6 7 10 1 159 
3 0 10 5 9 10 1 159 
8 0 4 5 10 8 1 159 
10 0 10 1 10 9 1 159 
0 0 0 0 0 0 1 382 
0 0 0 0 0 0 6 161 162 163 164 165 166 
9 0 0 2 0 0 2 168 167 
3 0 0 5 0 0 2 168 167 
6 0 0 8 0 0 2 168 167 
5 0 0 10 0 0 2 168 167 
2 0 0 10 0 0 2 168 167 
5 0 0 8 0 0 2 168 167 
7 0 0 10 0 0 2 170 169 
10 0 0 9 0 0 3 170 169 314 
2 0 0 7 0 0 1 171 
3 0 0 6 0 0 1 171 
0 0 0 0 0 0 3 214 226 258 
0 0 0 0 0 0 3 173 177 179 
7 4 4 0 1 4 4 182 176 175 174 
8 7 7 0 5 7 2 183 178 
4 8 8 0 8 10 6 201 189 187 186 185 181 
7 8 4 0 10 10 5 212 189 184 183 180 
2 3 9 0 10 4 4 189 187 184 180 
8 7 10 0 7 7 4 212 189 184 180 
5 8 5 0 10 8 4 185 184 182 181 
10 8 6 0 9 5 9 201 198 196 193 192 191 190 188 185 
7 8 7 0 6 10 8 198 196 195 194 193 192 191 188 
6 4 7 0 9 9 4 201 198 194 183 
9 5 5 0 8 9 4 196 193 190 188 
2 8 10 0 6 10 4 198 196 195 194 
2 6 6 0 7 8 3 197 195 194 
6 7 10 0 10 7 4 206 198 196 193 
2 8 7 0 10 7 3 212 195 190 
3 8 9 0 9 8 3 206 199 197 
2 10 8 0 10 2 2 195 194 
8 6 5 0 10 10 3 211 205 199 
1 8 8 0 8 10 3 211 206 199 
7 10 6 0 7 10 3 211 205 199 
6 9 6 0 3 5 3 211 205 200 
7 6 7 0 9 4 2 211 199 
8 9 9 0 6 5 2 206 200 
8 8 7 0 3 8 4 211 210 205 203 
6 8 8 0 6 6 3 209 205 202 
9 10 9 0 9 10 2 203 202 
8 10 10 0 10 10 1 200 
7 10 4 0 7 4 3 210 204 203 
9 2 10 0 5 8 1 202 
7 6 8 0 7 6 4 211 210 208 207 
10 10 5 0 7 3 2 209 207 
8 4 2 0 9 7 2 208 207 
10 10 9 0 7 9 2 208 207 
4 10 9 0 7 7 1 209 
6 5 10 0 6 8 1 213 
3 10 10 0 9 8 1 213 
7 5 10 0 5 9 2 213 360 
4 10 10 0 7 10 1 213 
10 8 10 0 8 10 1 213 
6 9 6 0 10 8 1 213 
0 0 0 0 0 0 1 382 
0 0 0 0 0 0 6 215 216 217 218 221 224 
4 0 0 0 3 0 2 223 222 
7 0 0 0 6 0 1 220 
1 0 0 0 5 0 1 219 
4 0 0 0 10 0 1 219 
5 0 0 0 10 0 1 222 
7 0 0 0 4 0 2 222 274 
4 0 0 0 10 0 1 222 
3 0 0 0 7 0 1 225 
4 0 0 0 10 0 1 225 
8 0 0 0 10 0 1 225 
0 0 0 0 0 0 3 290 312 324 
0 0 0 0 0 0 6 227 228 229 230 231 232 
5 0 4 2 2 0 3 235 234 233 
9 0 6 7 7 0 3 244 235 233 
10 0 5 7 10 0 2 235 233 
5 0 6 5 10 0 2 234 233 
8 0 6 8 9 0 3 237 236 234 
2 0 9 10 8 0 3 238 236 234 
5 0 9 7 7 0 5 242 240 239 237 236 
9 0 10 7 6 0 4 244 242 240 239 
9 0 10 8 6 0 2 241 238 
7 0 4 9 10 0 3 246 245 243 
6 0 10 10 8 0 3 246 245 243 
4 0 3 5 7 0 3 246 245 243 
2 0 10 10 10 0 2 246 243 
6 0 9 10 10 0 2 246 243 
10 0 10 4 5 0 2 246 243 
2 0 3 10 9 0 1 243 
5 0 6 8 5 0 4 256 253 248 247 
6 0 5 10 8 0 2 247 245 
1 0 6 10 8 0 5 256 253 251 250 249 
4 0 10 8 8 0 4 253 250 249 247 
8 0 9 7 5 0 2 255 251 
7 0 9 8 6 0 2 250 249 
1 0 7 6 4 0 2 255 254 
9 0 6 6 10 0 2 255 254 
8 0 6 8 5 0 1 252 
2 0 10 5 8 0 1 254 
1 0 10 7 10 0 1 255 
7 0 10 6 9 0 1 257 
3 0 9 10 6 0 1 257 
8 0 8 7 9 0 1 257 
0 0 0 0 0 0 1 382 
0 0 0 0 0 0 6 259 260 261 262 263 288 
8 0 4 4 5 0 4 282 266 265 264 
7 0 3 6 9 0 5 282 272 270 265 264 
6 0 7 6 8 0 3 270 265 264 
6 0 7 10 5 0 3 274 266 264 
9 0 5 9 4 0 5 277 276 274 271 266 
4 0 10 8 7 0 3 271 268 267 
4 0 7 9 9 0 2 274 269 
7 0 8 5 7 0 2 272 270 
6 0 6 6 10 0 2 276 273 
2 0 9 10 10 0 2 276 273 
5 0 7 4 10 0 2 276 273 
10 0 8 10 9 0 1 273 
3 0 4 3 9 0 1 273 
6 0 7 8 5 0 1 273 
1 0 6 8 4 0 6 287 286 285 281 280 275 
8 0 6 10 6 0 2 285 275 
8 0 8 10 10 0 2 283 278 
8 0 10 7 8 0 3 286 285 283 
8 0 10 7 5 0 2 286 283 
10 0 9 9 10 0 1 279 
3 0 9 10 8 0 1 284 
3 0 10 10 10 0 1 283 
8 0 10 7 8 0 1 283 
7 0 8 6 10 0 1 285 
7 0 2 5 10 0 1 289 
3 0 10 5 5 0 1 289 
7 0 7 10 8 0 1 289 
10 0 8 5 3 0 1 289 
3 0 10 9 6 0 1 289 
2 0 10 9 7 0 1 289 
0 0 0 0 0 0 1 382 
0 0 0 0 0 0 6 291 292 293 294 295 296 
1 0 0 4 1 0 7 310 308 307 306 303 301 299 
5 0 0 5 5 0 6 309 308 307 306 303 300 
10 0 0 5 9 0 4 309 307 306 297 
8 0 0 4 8 0 4 309 306 303 299 
5 0 0 8 8 0 3 307 306 298 
10 0 0 9 8 0 5 309 308 307 306 303 
8 0 0 5 8 0 4 308 305 303 302 
6 0 0 9 10 0 3 305 303 302 
5 0 0 8 9 0 1 300 
9 0 0 7 6 0 2 305 302 
6 0 0 10 8 0 2 305 302 
6 0 0 10 10 0 1 304 
9 0 0 8 4 0 1 304 
7 0 0 10 8 0 1 311 
7 0 0 8 10 0 1 311 
5 0 0 7 8 0 1 311 
4 0 0 10 2 0 1 311 
5 0 0 10 9 0 1 311 
7 0 0 8 10 0 1 311 
9 0 0 5 9 0 1 311 
0 0 0 0 0 0 1 382 
0 0 0 0 0 0 3 313 314 315 
4 0 5 0 0 0 4 322 321 317 316 
5 0 2 0 0 0 5 322 321 319 318 317 
10 0 10 0 0 0 2 317 316 
7 0 7 0 0 0 2 319 318 
9 0 10 0 0 0 1 320 
5 0 9 0 0 0 1 323 
5 0 8 0 0 0 1 323 
9 0 7 0 0 0 1 323 
8 0 7 0 0 0 1 323 
1 0 10 0 0 0 1 323 
0 0 0 0 0 0 3 346 358 370 
0 0 0 0 0 0 6 325 328 331 332 343 344 
5 0 0 1 3 0 3 342 333 326 
7 0 0 7 7 0 4 341 337 334 327 
5 0 0 7 9 0 3 340 335 330 
3 0 0 6 6 0 2 333 329 
9 0 0 8 9 0 3 337 336 334 
1 0 0 10 10 0 3 339 338 336 
2 0 0 9 10 0 2 336 333 
6 0 0 7 9 0 1 333 
7 0 0 7 10 0 1 335 
5 0 0 9 9 0 1 335 
4 0 0 8 3 0 1 345 
8 0 0 9 10 0 1 345 
6 0 0 10 5 0 1 345 
6 0 0 6 8 0 1 345 
3 0 0 7 5 0 1 345 
2 0 0 7 7 0 1 345 
5 0 0 4 4 0 1 345 
6 0 0 10 7 0 1 345 
7 0 0 8 9 0 1 345 
9 0 0 10 10 0 1 345 
0 0 0 0 0 0 1 382 
0 0 0 0 0 0 4 347 348 355 356 
8 0 0 4 0 0 3 354 350 349 
3 0 0 7 0 0 1 349 
5 0 0 10 0 0 3 353 352 351 
5 0 0 6 0 0 1 351 
1 0 0 9 0 0 1 357 
2 0 0 6 0 0 1 357 
6 0 0 10 0 0 1 357 
2 0 0 6 0 0 1 357 
4 0 0 10 0 0 1 357 
1 0 0 7 0 0 1 357 
0 0 0 0 0 0 1 382 
0 0 0 0 0 0 5 359 360 361 367 368 
2 0 4 0 0 0 3 366 364 362 
7 0 10 0 0 0 2 366 363 
10 0 5 0 0 0 2 365 364 
6 0 6 0 0 0 1 365 
6 0 8 0 0 0 1 364 
9 0 10 0 0 0 1 369 
3 0 6 0 0 0 1 369 
2 0 6 0 0 0 1 369 
4 0 10 0 0 0 1 369 
6 0 10 0 0 0 1 369 
0 0 0 0 0 0 1 382 
0 0 0 0 0 0 2 371 372 
1 0 0 2 0 0 3 380 377 373 
1 0 0 8 0 0 4 377 376 375 374 
3 0 0 10 0 0 3 379 376 375 
8 0 0 8 0 0 1 378 
7 0 0 8 0 0 1 381 
6 0 0 8 0 0 1 381 
9 0 0 6 0 0 1 381 
6 0 0 9 0 0 1 381 
2 0 0 6 0 0 1 381 
1 0 0 10 0 0 1 381 
0 0 0 0 0 0 1 382 
0 0 0 0 0 0 0 
